p cnf 31 74
a 26 15 0
e 1 2 3 4 5 6 7 8 9 10 11 12 13 14 16 17 18 19 20 21 22 23 24 25 27 28 29 30 31 0
-3 -1 0
-3 2 0
1 -2 3 0
7 5 0
7 -6 0
-5 6 -7 0
8 -4 0
8 -7 0
4 7 -8 0
10 6 0
10 9 0
-6 -9 -10 0
8 10 -11 0
-8 -10 -11 0
8 -10 11 0
-8 10 11 0
-3 -11 -12 0
3 11 -12 0
-3 11 12 0
3 -11 12 0
14 -1 0
14 -13 0
1 13 -14 0
14 10 -15 0
-14 -10 -15 0
14 -10 15 0
-14 10 15 0
17 9 0
17 16 0
-9 -16 -17 0
19 -14 0
19 18 0
14 -18 -19 0
20 -17 0
20 -19 0
17 19 -20 0
21 16 0
21 1 0
-16 -1 -21 0
-22 -20 0
-22 21 0
20 -21 22 0
-23 -15 0
-23 -22 0
15 22 23 0
-25 -24 0
-25 -4 0
24 4 25 0
-26 -23 0
-26 -25 0
23 25 26 0
27 -12 0
27 -26 0
12 26 -27 0
28 8 0
28 5 0
-8 -5 -28 0
29 19 0
29 4 0
-19 -4 -29 0
-30 28 0
-30 29 0
-28 -29 30 0
-31 27 0
-31 30 0
-27 -30 31 0
26 -14 20 -22 -11 -23 -15 0
-19 -8 12 -6 23 9 0
8 7 6 -20 -15 4 13 0
-31 -15 -26 -12 -14 -21 0
-3 23 -12 -27 0
7 21 28 22 0
-1 27 -6 0
31 0
